n = 16;
num_edges = 42;
start = 1;
target = 13;
 
graph = array2d(1..num_edges, 1..2, 
   [
      1,2, 1,5, 2,3, 2,6, 3,2, 3,7, 4,5, 4,9, 5,4, 5,6, 5,10, 6,2, 6,7, 6,5, 6,11, 7,3, 7,6, 7,8, 7,12,
      8,7, 8,13, 9,4, 9,10, 10,5, 10,9, 10,11, 10,14, 11,6, 11,10, 11,12, 11,15, 12,7, 12,11, 12,13, 12,16,
      14,10, 14,15, 15,11, 15,14, 15,16, 16,12, 16,15
    ]);